70 1187 5
0 2 1
0 4 1
0 5 1
0 6 1
0 13 1
0 14 1
0 16 1
0 22 1
0 23 1
0 26 1
0 27 1
0 29 1
0 30 1
0 31 1
0 32 1
0 33 1
0 36 1
0 37 1
0 38 1
0 39 1
0 40 1
0 44 1
0 45 1
0 47 1
0 51 1
0 53 1
0 55 1
0 58 1
0 62 1
0 63 1
0 64 1
0 66 1
0 67 1
0 68 1
0 69 1
1 2 1
1 6 1
1 7 1
1 9 1
1 12 1
1 13 1
1 14 1
1 16 1
1 19 1
1 20 1
1 24 1
1 26 1
1 27 1
1 29 1
1 33 1
1 37 1
1 38 1
1 39 1
1 41 1
1 42 1
1 44 1
1 45 1
1 49 1
1 53 1
1 55 1
1 57 1
1 59 1
1 64 1
1 65 1
1 66 1
1 68 1
1 69 1
2 4 1
2 6 1
2 7 1
2 12 1
2 13 1
2 18 1
2 19 1
2 21 1
2 23 1
2 24 1
2 27 1
2 30 1
2 34 1
2 35 1
2 39 1
2 40 1
2 42 1
2 43 1
2 45 1
2 47 1
2 51 1
2 56 1
2 58 1
2 59 1
2 60 1
2 61 1
2 62 1
2 68 1
2 69 1
3 5 1
3 6 1
3 7 1
3 8 1
3 9 1
3 10 1
3 11 1
3 13 1
3 14 1
3 15 1
3 16 1
3 20 1
3 21 1
3 22 1
3 23 1
3 24 1
3 25 1
3 27 1
3 30 1
3 31 1
3 32 1
3 35 1
3 36 1
3 37 1
3 38 1
3 45 1
3 48 1
3 54 1
3 55 1
3 56 1
3 57 1
3 59 1
3 61 1
3 62 1
3 63 1
3 67 1
3 68 1
4 5 1
4 7 1
4 11 1
4 13 1
4 14 1
4 15 1
4 19 1
4 20 1
4 21 1
4 22 1
4 23 1
4 25 1
4 29 1
4 31 1
4 34 1
4 35 1
4 38 1
4 40 1
4 41 1
4 44 1
4 48 1
4 49 1
4 50 1
4 51 1
4 53 1
4 54 1
4 56 1
4 57 1
4 61 1
4 62 1
4 63 1
4 65 1
4 69 1
5 7 1
5 8 1
5 9 1
5 10 1
5 11 1
5 12 1
5 14 1
5 17 1
5 18 1
5 20 1
5 22 1
5 23 1
5 27 1
5 28 1
5 30 1
5 31 1
5 32 1
5 34 1
5 35 1
5 37 1
5 38 1
5 40 1
5 44 1
5 46 1
5 47 1
5 52 1
5 54 1
5 56 1
5 58 1
5 60 1
5 62 1
5 63 1
5 65 1
5 66 1
5 67 1
5 68 1
6 10 1
6 11 1
6 12 1
6 13 1
6 14 1
6 17 1
6 18 1
6 21 1
6 24 1
6 26 1
6 29 1
6 32 1
6 38 1
6 39 1
6 42 1
6 45 1
6 47 1
6 48 1
6 49 1
6 52 1
6 54 1
6 55 1
6 57 1
6 58 1
6 59 1
6 65 1
6 66 1
6 68 1
7 9 1
7 10 1
7 12 1
7 13 1
7 14 1
7 17 1
7 18 1
7 19 1
7 22 1
7 24 1
7 25 1
7 27 1
7 30 1
7 31 1
7 33 1
7 34 1
7 36 1
7 37 1
7 39 1
7 41 1
7 42 1
7 43 1
7 44 1
7 45 1
7 46 1
7 47 1
7 50 1
7 53 1
7 56 1
7 57 1
7 58 1
7 59 1
7 60 1
7 61 1
7 63 1
7 66 1
7 67 1
8 9 1
8 11 1
8 13 1
8 16 1
8 17 1
8 18 1
8 21 1
8 22 1
8 23 1
8 26 1
8 27 1
8 29 1
8 31 1
8 35 1
8 38 1
8 42 1
8 44 1
8 47 1
8 48 1
8 51 1
8 52 1
8 54 1
8 55 1
8 60 1
8 62 1
8 67 1
8 68 1
9 12 1
9 13 1
9 14 1
9 15 1
9 16 1
9 21 1
9 24 1
9 26 1
9 27 1
9 32 1
9 34 1
9 35 1
9 37 1
9 38 1
9 39 1
9 43 1
9 46 1
9 49 1
9 54 1
9 55 1
9 57 1
9 60 1
9 61 1
9 63 1
10 13 1
10 15 1
10 18 1
10 20 1
10 21 1
10 22 1
10 24 1
10 26 1
10 31 1
10 37 1
10 39 1
10 40 1
10 41 1
10 42 1
10 45 1
10 46 1
10 47 1
10 48 1
10 50 1
10 52 1
10 55 1
10 57 1
10 62 1
10 64 1
10 65 1
10 67 1
10 68 1
11 12 1
11 17 1
11 18 1
11 21 1
11 22 1
11 24 1
11 25 1
11 28 1
11 29 1
11 30 1
11 31 1
11 35 1
11 37 1
11 39 1
11 40 1
11 43 1
11 44 1
11 45 1
11 47 1
11 51 1
11 52 1
11 58 1
11 59 1
11 61 1
11 62 1
11 63 1
11 69 1
12 16 1
12 18 1
12 19 1
12 20 1
12 21 1
12 28 1
12 31 1
12 32 1
12 34 1
12 35 1
12 39 1
12 40 1
12 41 1
12 44 1
12 46 1
12 48 1
12 49 1
12 51 1
12 52 1
12 53 1
12 54 1
12 55 1
12 56 1
12 59 1
12 62 1
12 63 1
12 65 1
12 67 1
12 69 1
13 16 1
13 17 1
13 20 1
13 21 1
13 23 1
13 27 1
13 28 1
13 29 1
13 30 1
13 31 1
13 32 1
13 36 1
13 37 1
13 38 1
13 39 1
13 41 1
13 43 1
13 45 1
13 47 1
13 49 1
13 51 1
13 53 1
13 56 1
13 57 1
13 58 1
13 60 1
13 62 1
13 63 1
13 64 1
13 66 1
13 67 1
14 15 1
14 17 1
14 18 1
14 20 1
14 22 1
14 31 1
14 32 1
14 33 1
14 34 1
14 35 1
14 36 1
14 37 1
14 39 1
14 44 1
14 47 1
14 51 1
14 52 1
14 54 1
14 56 1
14 57 1
14 58 1
14 60 1
14 64 1
14 65 1
14 66 1
14 67 1
14 68 1
14 69 1
15 16 1
15 17 1
15 18 1
15 19 1
15 21 1
15 23 1
15 28 1
15 31 1
15 32 1
15 34 1
15 36 1
15 37 1
15 39 1
15 40 1
15 41 1
15 43 1
15 44 1
15 45 1
15 46 1
15 49 1
15 53 1
15 55 1
15 61 1
15 62 1
15 63 1
15 65 1
15 66 1
15 69 1
16 20 1
16 22 1
16 23 1
16 24 1
16 25 1
16 26 1
16 27 1
16 29 1
16 34 1
16 42 1
16 47 1
16 48 1
16 49 1
16 50 1
16 51 1
16 53 1
16 54 1
16 55 1
16 56 1
16 59 1
16 60 1
16 66 1
16 67 1
16 68 1
16 69 1
17 20 1
17 22 1
17 27 1
17 29 1
17 31 1
17 34 1
17 37 1
17 39 1
17 41 1
17 42 1
17 43 1
17 45 1
17 50 1
17 51 1
17 54 1
17 55 1
17 56 1
17 60 1
17 61 1
17 62 1
17 63 1
17 64 1
17 68 1
17 69 1
18 19 1
18 20 1
18 24 1
18 25 1
18 27 1
18 28 1
18 29 1
18 31 1
18 33 1
18 34 1
18 36 1
18 42 1
18 44 1
18 46 1
18 47 1
18 51 1
18 54 1
18 56 1
18 59 1
18 60 1
18 65 1
18 66 1
19 21 1
19 22 1
19 24 1
19 26 1
19 27 1
19 28 1
19 31 1
19 32 1
19 34 1
19 36 1
19 37 1
19 43 1
19 44 1
19 45 1
19 49 1
19 52 1
19 53 1
19 54 1
19 55 1
19 57 1
19 61 1
19 62 1
19 63 1
19 65 1
19 66 1
19 69 1
20 21 1
20 23 1
20 27 1
20 28 1
20 29 1
20 30 1
20 31 1
20 35 1
20 36 1
20 38 1
20 42 1
20 45 1
20 47 1
20 50 1
20 51 1
20 54 1
20 55 1
20 61 1
20 65 1
20 68 1
20 69 1
21 22 1
21 23 1
21 24 1
21 28 1
21 29 1
21 31 1
21 32 1
21 33 1
21 35 1
21 36 1
21 38 1
21 40 1
21 42 1
21 43 1
21 45 1
21 46 1
21 47 1
21 49 1
21 50 1
21 51 1
21 53 1
21 55 1
21 56 1
21 57 1
21 58 1
21 60 1
21 64 1
21 65 1
21 66 1
21 67 1
21 68 1
21 69 1
22 23 1
22 25 1
22 27 1
22 28 1
22 30 1
22 32 1
22 38 1
22 40 1
22 43 1
22 44 1
22 45 1
22 46 1
22 48 1
22 49 1
22 51 1
22 52 1
22 53 1
22 55 1
22 57 1
22 58 1
22 60 1
22 62 1
22 66 1
22 67 1
22 69 1
23 24 1
23 26 1
23 28 1
23 30 1
23 32 1
23 33 1
23 34 1
23 35 1
23 40 1
23 45 1
23 55 1
23 59 1
23 60 1
23 61 1
23 62 1
23 63 1
23 67 1
23 69 1
24 26 1
24 27 1
24 28 1
24 30 1
24 32 1
24 33 1
24 35 1
24 38 1
24 39 1
24 42 1
24 43 1
24 44 1
24 46 1
24 47 1
24 48 1
24 51 1
24 52 1
24 53 1
24 54 1
24 57 1
24 58 1
24 60 1
24 65 1
24 66 1
24 69 1
25 26 1
25 27 1
25 30 1
25 31 1
25 37 1
25 38 1
25 39 1
25 43 1
25 44 1
25 46 1
25 47 1
25 48 1
25 49 1
25 51 1
25 52 1
25 54 1
25 56 1
25 58 1
25 61 1
25 65 1
25 67 1
25 69 1
26 27 1
26 28 1
26 31 1
26 33 1
26 34 1
26 35 1
26 37 1
26 38 1
26 43 1
26 45 1
26 50 1
26 51 1
26 52 1
26 55 1
26 59 1
26 61 1
26 65 1
26 66 1
26 67 1
26 68 1
26 69 1
27 30 1
27 31 1
27 34 1
27 35 1
27 39 1
27 40 1
27 41 1
27 43 1
27 45 1
27 46 1
27 49 1
27 50 1
27 51 1
27 53 1
27 54 1
27 55 1
27 56 1
27 57 1
27 58 1
27 59 1
27 60 1
27 61 1
27 63 1
27 64 1
27 65 1
27 66 1
27 67 1
27 69 1
28 29 1
28 30 1
28 31 1
28 33 1
28 35 1
28 36 1
28 39 1
28 40 1
28 42 1
28 44 1
28 45 1
28 46 1
28 47 1
28 48 1
28 49 1
28 50 1
28 51 1
28 54 1
28 55 1
28 57 1
28 61 1
28 63 1
28 64 1
28 65 1
28 69 1
29 30 1
29 31 1
29 32 1
29 33 1
29 38 1
29 40 1
29 41 1
29 43 1
29 44 1
29 46 1
29 51 1
29 52 1
29 53 1
29 55 1
29 56 1
29 58 1
29 60 1
29 61 1
29 63 1
29 64 1
29 65 1
30 31 1
30 33 1
30 41 1
30 43 1
30 44 1
30 45 1
30 47 1
30 48 1
30 50 1
30 54 1
30 57 1
30 58 1
30 59 1
30 60 1
30 61 1
30 63 1
30 65 1
30 66 1
30 68 1
31 33 1
31 35 1
31 37 1
31 38 1
31 40 1
31 42 1
31 44 1
31 45 1
31 49 1
31 51 1
31 52 1
31 54 1
31 59 1
31 60 1
31 61 1
31 62 1
31 64 1
31 66 1
31 69 1
32 34 1
32 35 1
32 37 1
32 38 1
32 40 1
32 42 1
32 43 1
32 48 1
32 52 1
32 53 1
32 54 1
32 55 1
32 56 1
32 57 1
32 58 1
32 61 1
32 62 1
32 65 1
32 66 1
33 35 1
33 39 1
33 41 1
33 42 1
33 44 1
33 46 1
33 49 1
33 51 1
33 55 1
33 59 1
33 61 1
33 63 1
33 67 1
33 68 1
34 35 1
34 36 1
34 37 1
34 39 1
34 42 1
34 43 1
34 44 1
34 45 1
34 46 1
34 49 1
34 50 1
34 53 1
34 54 1
34 55 1
34 56 1
34 60 1
34 61 1
34 64 1
34 65 1
34 66 1
34 69 1
35 43 1
35 44 1
35 46 1
35 50 1
35 52 1
35 53 1
35 55 1
35 56 1
35 59 1
35 60 1
35 62 1
35 64 1
35 67 1
36 37 1
36 39 1
36 41 1
36 43 1
36 45 1
36 46 1
36 47 1
36 48 1
36 51 1
36 55 1
36 56 1
36 61 1
36 62 1
36 65 1
36 66 1
36 69 1
37 39 1
37 41 1
37 43 1
37 46 1
37 49 1
37 50 1
37 53 1
37 56 1
37 67 1
37 68 1
37 69 1
38 39 1
38 40 1
38 43 1
38 44 1
38 45 1
38 46 1
38 48 1
38 50 1
38 52 1
38 54 1
38 57 1
38 61 1
38 63 1
38 64 1
38 65 1
38 68 1
39 41 1
39 44 1
39 45 1
39 47 1
39 48 1
39 50 1
39 53 1
39 55 1
39 56 1
39 60 1
39 62 1
39 64 1
39 65 1
39 66 1
40 44 1
40 51 1
40 52 1
40 54 1
40 55 1
40 57 1
40 61 1
40 64 1
40 67 1
40 68 1
40 69 1
41 42 1
41 47 1
41 49 1
41 50 1
41 55 1
41 60 1
41 61 1
41 62 1
41 64 1
41 65 1
41 66 1
41 69 1
42 43 1
42 49 1
42 52 1
42 55 1
42 56 1
42 57 1
42 58 1
42 65 1
42 66 1
42 67 1
42 69 1
43 44 1
43 46 1
43 49 1
43 50 1
43 53 1
43 56 1
43 62 1
43 67 1
44 46 1
44 48 1
44 49 1
44 51 1
44 52 1
44 58 1
44 61 1
44 64 1
44 67 1
45 47 1
45 48 1
45 50 1
45 51 1
45 54 1
45 62 1
45 63 1
45 65 1
45 66 1
45 67 1
45 69 1
46 51 1
46 55 1
46 59 1
46 61 1
46 63 1
46 65 1
46 66 1
46 68 1
46 69 1
47 48 1
47 50 1
47 54 1
47 57 1
47 59 1
47 60 1
47 61 1
47 65 1
47 66 1
47 67 1
47 69 1
48 49 1
48 50 1
48 51 1
48 53 1
48 57 1
48 58 1
48 60 1
48 67 1
48 68 1
49 50 1
49 51 1
49 52 1
49 58 1
49 59 1
49 61 1
49 62 1
49 65 1
49 66 1
49 68 1
49 69 1
50 55 1
50 57 1
50 58 1
50 60 1
50 65 1
51 53 1
51 54 1
51 57 1
51 59 1
51 60 1
51 62 1
51 63 1
51 64 1
51 65 1
51 66 1
51 67 1
51 68 1
52 54 1
52 55 1
52 56 1
52 57 1
52 58 1
52 59 1
52 61 1
52 62 1
52 63 1
52 66 1
52 67 1
52 68 1
52 69 1
53 54 1
53 55 1
53 56 1
53 59 1
53 60 1
53 61 1
53 63 1
53 68 1
54 55 1
54 56 1
54 58 1
54 59 1
54 60 1
54 63 1
54 65 1
54 66 1
54 69 1
55 61 1
55 62 1
55 63 1
55 66 1
55 67 1
55 68 1
55 69 1
56 57 1
56 59 1
56 60 1
56 61 1
56 64 1
56 65 1
56 66 1
56 68 1
56 69 1
57 61 1
57 63 1
57 64 1
57 67 1
57 69 1
58 60 1
58 62 1
58 68 1
58 69 1
59 62 1
59 66 1
59 68 1
59 69 1
60 62 1
60 63 1
60 64 1
61 63 1
61 65 1
61 67 1
61 68 1
62 64 1
62 65 1
62 66 1
62 68 1
62 69 1
63 64 1
63 68 1
63 69 1
64 65 1
64 66 1
64 68 1
64 69 1
65 66 1
65 68 1
66 68 1
66 69 1
68 69 1
1 35 48 51 69